NAME : census.-62401809.tour
COMMENT : Length = -62401809
COMMENT : Found by LKH [Keld Helsgaun] Tue May 25 08:54:41 2021
TYPE : TOUR
DIMENSION : 68
TOUR_SECTION
1
3
50
39
2
40
41
12
56
43
29
51
45
48
4
11
58
57
18
36
22
44
55
20
59
13
65
53
68
61
38
5
16
26
28
19
23
30
21
24
10
46
7
60
15
31
6
62
14
35
25
9
47
67
63
17
32
8
42
49
37
34
52
64
33
27
66
54
-1
EOF
